unsat
(define-fun inv ((s Int) (i Int) (n Int)) Bool (and (or (not (>= (+ i (* (- 1) n)) 1)) (= s n) (= s 0)) (= s (+ (- 1) i))))
0.29user 0.01system 0:00.30elapsed 100%CPU (0avgtext+0avgdata 30548maxresident)k
0inputs+8outputs (0major+2372minor)pagefaults 0swaps
